55035
23, 21, 29, 39, 46, 36, 15, 52, 42, 33, 1, 27, 31, 25, 11, 45, 2, 14, 16, 22, 10, 9, 12, 18, 4, 30, 47, 54, 34, 53, 17, 48, 19, 44, 8, 38, 50, 20, 7, 37, 5, 35, 24, 32, 41, 13, 51, 40, 43, 3, 6, 28, 55, 26, 49
